NAME : portcgen-21-2
COMMENT : portcgen N=21, seed=2
TYPE : TSP
DIMENSION : 21
EDGE_WEIGHT_TYPE : EUC_2D
NODE_COORD_SECTION
1 322876 90730
2 551279 147004
3 -31725 -55117
4 -227047 -131535
5 -115172 -150251
6 261993 -315701
7 227658 174425
8 -415227 -97751
9 292412 -71629
10 -78708 243796
11 74073 33006
12 209391 353777
13 -192345 173636
14 -26961 -222869
15 28199 -39752
16 27977 -9144
17 -85855 184753
18 84337 -354083
19 490093 -77450
20 -259830 241053
21 -199142 -196889
